c ren 1 -> 1
c ren 2 -> 2
c ren 3 -> 3
c ren 4 -> 4
c ren 5 -> 5
c ren 6 -> 6
c ren 7 -> 7
c ren 8 -> 8
c ren 9 -> 9
c ren 10 -> 10
c ren 11 -> 11
c ren 12 -> 12
c ren 13 -> 13
c ren 14 -> 14
c ren 15 -> 15
c ren 16 -> 16
c ren 17 -> 17
c ren 18 -> 18
c ren 19 -> 19
c ren 20 -> 20
c ren 21 -> 21
c ren 22 -> 22
c ren 23 -> 23
c ren 24 -> 24
c ren 25 -> 25
c ren 26 -> 26
c ren 27 -> 27
c ren 28 -> 28
c ren 33 -> 29
c ren 42 -> 30
c ren 46 -> 31
c ren 51 -> 32
c ren 55 -> 33
c ren 70 -> 34
c ren 73 -> 35
c ren 136 -> 36
p cnf 36 102
a 1 2 3 4 5 6 7 8 9 10 11 12 13 14 15 16 17 18 19 20 21 22 23 24 0
d 25 17 18 0
d 26 21 22 0
d 27 19 20 0
d 28 23 24 0
e 29 30 31 32 33 34 35 36 0
-1 -17 -29 0
1 2 -7 -17 29 0
7 -25 34 -35 0
-2 -17 -29 0
1 2 -7 17 -29 0
7 -17 -29 0
1 2 3 4 5 6 -7 25 34 -35 0
-2 -25 34 -35 0
-1 -25 34 -35 0
-1 17 29 0
-3 18 30 0
-4 -18 -30 0
-5 -18 -30 0
3 4 5 6 18 -30 0
-6 -18 -30 0
1 2 3 4 5 6 -11 14 -15 -26 34 -35 -36 0
-6 -25 34 -35 0
1 2 3 4 5 6 -11 -13 -26 34 -35 -36 0
30 34 0
9 10 13 14 -21 -22 -23 -29 -30 -31 -32 -33 -34 0
-4 18 30 0
-5 -19 -31 0
5 6 -19 31 0
5 6 19 -31 0
1 2 3 4 5 6 7 -8 27 34 -35 0
31 34 0
9 10 -13 -21 -22 23 -29 -30 -31 -32 -33 -34 0
1 2 3 4 -6 -27 34 -35 0
-7 -20 -32 0
7 -8 -20 32 0
7 -8 20 -32 0
8 20 32 0
8 -20 -32 0
-7 20 32 0
32 34 0
9 10 -14 -21 -22 23 -29 -30 -31 -32 -33 -34 0
-7 -33 0
-8 -33 0
7 8 33 0
-9 -14 -21 22 23 -29 -30 -31 -32 -33 -34 0
-9 13 14 -21 22 -23 -29 -30 -31 -32 -33 -34 0
-10 -13 21 22 23 -29 -30 -31 -32 33 -34 0
-10 13 14 -21 22 -23 -29 -30 -31 -32 -33 -34 0
-9 -13 -21 22 23 -29 -30 -31 -32 -33 -34 0
-10 -13 -21 22 23 -29 -30 -31 -32 -33 -34 0
29 34 0
9 10 -14 21 -22 23 -29 -30 -31 -32 33 -34 0
1 2 3 4 5 6 7 8 9 10 -14 -28 34 -35 -36 0
-10 13 14 21 22 -23 -29 -30 -31 -32 33 -34 0
9 10 13 14 21 -22 -23 -29 -30 -31 -32 33 -34 0
-9 -13 21 22 23 -29 -30 -31 -32 33 -34 0
9 10 -13 21 -22 23 -29 -30 -31 -32 33 -34 0
-9 -14 21 22 23 -29 -30 -31 -32 33 -34 0
-5 19 31 0
-10 -14 21 22 23 -29 -30 -31 -32 33 -34 0
-4 -25 34 -35 0
1 2 3 4 5 6 7 8 9 10 -11 13 -14 34 -35 -36 0
-3 -25 34 -35 0
15 -16 -24 35 0
16 24 35 0
-15 24 35 0
-2 17 29 0
7 17 29 0
1 2 3 4 8 -27 34 -35 0
3 4 5 6 -18 30 0
-3 -18 -30 0
1 2 3 4 5 6 7 8 9 10 -12 13 -14 34 -35 -36 0
1 2 3 4 5 6 -10 14 -15 -26 34 -35 -36 0
1 2 3 4 5 6 7 8 9 10 16 -28 34 -35 -36 0
1 2 3 4 5 6 7 8 9 10 -12 -28 34 -35 -36 0
1 2 3 4 -5 -27 34 -35 0
1 2 3 4 5 6 7 8 9 10 12 13 -14 34 -35 36 0
1 2 3 4 5 6 -12 14 -15 -26 34 -35 -36 0
1 2 3 4 5 6 -13 -26 33 34 -35 -36 0
1 2 3 4 5 6 7 8 9 10 11 12 13 15 -16 28 34 -35 0
-6 19 31 0
-6 -19 -31 0
-5 18 30 0
-6 18 30 0
1 2 3 4 5 6 9 10 12 -13 -33 34 -35 36 0
1 2 3 4 5 6 14 -15 -26 33 34 -35 -36 0
1 2 3 4 5 6 -9 -13 -26 34 -35 -36 0
1 2 3 4 5 6 -9 -11 -26 34 -35 0
1 2 3 4 5 6 9 10 12 -13 26 -33 34 -35 0
1 2 3 4 5 6 9 10 12 14 -15 -33 34 -35 0
-10 -14 -21 22 23 -29 -30 -31 -32 -33 -34 0
1 2 3 4 5 6 7 8 9 10 -13 -28 34 -35 -36 0
1 2 3 4 5 6 -12 -13 -26 34 -35 -36 0
-11 12 36 0
11 -12 36 0
11 12 -36 0
1 2 3 4 5 6 -11 -26 33 34 -35 0
1 2 3 4 5 6 -10 -13 -26 34 -35 -36 0
1 2 3 4 5 6 -9 14 -15 -26 34 -35 -36 0
1 2 3 4 5 6 -10 -11 -26 34 -35 0
1 2 3 4 5 6 9 10 -11 26 -33 34 -35 0
-9 13 14 21 22 -23 -29 -30 -31 -32 33 -34 0
1 2 3 4 5 6 7 8 9 10 12 13 15 -16 34 -35 36 0
-5 -25 34 -35 0
1 2 3 4 5 6 7 8 9 10 -11 -28 34 -35 -36 0
1 2 3 4 -7 -27 34 -35 0
1 2 3 4 5 6 7 8 9 10 -15 -28 34 -35 -36 0
